presolving:
(round 1, fast)       160 del vars, 82 del conss, 0 add conss, 41 chg bounds, 0 chg sides, 0 chg coeffs, 0 upgd conss, 0 impls, 9605 clqs
   (0.1s) running MILP presolver
   (0.1s) MILP presolver (2 rounds): 0 aggregations, 0 fixings, 0 bound changes
(round 2, exhaustive) 160 del vars, 261 del conss, 0 add conss, 41 chg bounds, 0 chg sides, 0 chg coeffs, 0 upgd conss, 0 impls, 9605 clqs
(round 3, exhaustive) 160 del vars, 261 del conss, 0 add conss, 41 chg bounds, 0 chg sides, 0 chg coeffs, 9646 upgd conss, 0 impls, 9605 clqs
   (3.4s) probing: 1000/9225 (10.8%) - 0 fixings, 0 aggregations, 2135701 implications, 0 bound changes
   (3.4s) probing: 1001/9225 (10.9%) - 0 fixings, 0 aggregations, 2137492 implications, 0 bound changes
   (3.4s) probing aborted: 1000/1000 successive useless probings
   (3.4s) symmetry computation started: requiring (bin +, int -, cont +), (fixed: bin -, int +, cont -)
   (3.4s) no symmetry present
presolving (4 rounds: 4 fast, 3 medium, 3 exhaustive):
 160 deleted vars, 261 deleted constraints, 0 added constraints, 41 tightened bounds, 0 added holes, 0 changed sides, 41 changed coefficients
 0 implications, 33285 cliques
presolved problem has 9225 variables (9225 bin, 0 int, 0 impl, 0 cont) and 9646 constraints
     41 constraints of type <knapsack>
   9605 constraints of type <setppc>
Presolving Time: 3.41

 time | node  | left  |LP iter|LP it/n|mem/heur|mdpt |vars |cons |rows |cuts |sepa|confs|strbr|  dualbound   | primalbound  |  gap   | compl. 
p 5.9s|     1 |     0 |   265 |     - | vbounds|   0 |9225 |9664 |9646 |   0 |  0 |  17 |   0 | 0.000000e+00 | 9.180938e+04 |    Inf | unknown
  7.0s|     1 |     0 |  3866 |     - |   118M |   0 |9225 |9705 |9646 |   0 |  0 |  58 |   0 | 6.720702e+04 | 9.180938e+04 |  36.61%| unknown
  7.8s|     1 |     0 |  4179 |     - |   121M |   0 |9225 |9704 |9651 |   5 |  1 |  58 |   0 | 6.747587e+04 | 9.180938e+04 |  36.06%| unknown
  8.6s|     1 |     0 |  4594 |     - |   123M |   0 |9225 |9704 |9654 |   8 |  2 |  58 |   0 | 6.773579e+04 | 9.180938e+04 |  35.54%| unknown
 10.7s|     1 |     0 |  4669 |     - |   126M |   0 |9225 |9705 |9656 |  10 |  3 |  59 |   0 | 6.777793e+04 | 9.180938e+04 |  35.46%| unknown
 12.7s|     1 |     0 |  5202 |     - |   131M |   0 |9225 |9706 |9665 |  19 |  4 |  60 |   0 | 6.813931e+04 | 9.180938e+04 |  34.74%| unknown
 13.6s|     1 |     0 |  6277 |     - |   132M |   0 |9225 |9706 |9676 |  30 |  5 |  60 |   0 | 6.883639e+04 | 9.180938e+04 |  33.37%| unknown
 14.7s|     1 |     0 |  7214 |     - |   133M |   0 |9225 |9704 |9682 |  36 |  6 |  60 |   0 | 6.924561e+04 | 9.180938e+04 |  32.59%| unknown
 15.4s|     1 |     0 |  7450 |     - |   135M |   0 |9225 |9704 |9686 |  40 |  7 |  60 |   0 | 6.934576e+04 | 9.180938e+04 |  32.39%| unknown
 16.3s|     1 |     0 |  8037 |     - |   136M |   0 |9225 |9704 |9693 |  47 |  8 |  60 |   0 | 6.973149e+04 | 9.180938e+04 |  31.66%| unknown
 17.0s|     1 |     0 |  8183 |     - |   137M |   0 |9225 |9700 |9697 |  51 |  9 |  60 |   0 | 6.981595e+04 | 9.180938e+04 |  31.50%| unknown
 17.7s|     1 |     0 |  8291 |     - |   138M |   0 |9225 |9697 |9699 |  53 | 10 |  60 |   0 | 6.984349e+04 | 9.180938e+04 |  31.45%| unknown
 17.9s|     1 |     0 |  8496 |     - |   139M |   0 |9225 |9697 |9704 |  58 | 11 |  60 |   0 | 6.991193e+04 | 9.180938e+04 |  31.32%| unknown
 18.1s|     1 |     0 |  8626 |     - |   140M |   0 |9225 |9697 |9706 |  60 | 12 |  60 |   0 | 6.995123e+04 | 9.180938e+04 |  31.25%| unknown
 18.3s|     1 |     0 |  8817 |     - |   141M |   0 |9225 |9698 |9709 |  63 | 13 |  61 |   0 | 6.998916e+04 | 9.180938e+04 |  31.18%| unknown
 time | node  | left  |LP iter|LP it/n|mem/heur|mdpt |vars |cons |rows |cuts |sepa|confs|strbr|  dualbound   | primalbound  |  gap   | compl. 
 18.6s|     1 |     0 |  9078 |     - |   142M |   0 |9225 |9698 |9716 |  70 | 14 |  61 |   0 | 7.003704e+04 | 9.180938e+04 |  31.09%| unknown
 18.8s|     1 |     0 |  9196 |     - |   143M |   0 |9225 |9698 |9720 |  74 | 15 |  61 |   0 | 7.004949e+04 | 9.180938e+04 |  31.06%| unknown
 19.1s|     1 |     0 |  9331 |     - |   144M |   0 |9225 |9698 |9720 |  80 | 16 |  61 |   0 | 7.006952e+04 | 9.180938e+04 |  31.03%| unknown
 19.3s|     1 |     0 |  9499 |     - |   144M |   0 |9225 |9699 |9724 |  84 | 17 |  62 |   0 | 7.010329e+04 | 9.180938e+04 |  30.96%| unknown
 19.5s|     1 |     0 |  9605 |     - |   145M |   0 |9225 |9699 |9727 |  87 | 18 |  62 |   0 | 7.011643e+04 | 9.180938e+04 |  30.94%| unknown
 19.8s|     1 |     0 |  9830 |     - |   146M |   0 |9225 |9697 |9730 |  90 | 19 |  62 |   0 | 7.015937e+04 | 9.180938e+04 |  30.86%| unknown
 20.0s|     1 |     0 |  9881 |     - |   147M |   0 |9225 |9697 |9731 |  91 | 20 |  62 |   0 | 7.018326e+04 | 9.180938e+04 |  30.81%| unknown
 20.2s|     1 |     0 |  9938 |     - |   147M |   0 |9225 |9696 |9732 |  92 | 21 |  62 |   0 | 7.018875e+04 | 9.180938e+04 |  30.80%| unknown
 20.4s|     1 |     0 | 10081 |     - |   148M |   0 |9225 |9696 |9734 | 100 | 22 |  62 |   0 | 7.020160e+04 | 9.180938e+04 |  30.78%| unknown
 20.6s|     1 |     0 | 10146 |     - |   148M |   0 |9225 |9694 |9737 | 103 | 23 |  62 |   0 | 7.020739e+04 | 9.180938e+04 |  30.77%| unknown
 20.8s|     1 |     0 | 10161 |     - |   148M |   0 |9225 |9684 |9738 | 104 | 24 |  62 |   0 | 7.020768e+04 | 9.180938e+04 |  30.77%| unknown
 20.9s|     1 |     0 | 10180 |     - |   148M |   0 |9225 |9679 |9741 | 107 | 26 |  62 |   0 | 7.020811e+04 | 9.180938e+04 |  30.77%| unknown
 21.1s|     1 |     0 | 10215 |     - |   148M |   0 |9225 |9680 |9743 | 109 | 28 |  63 |   0 | 7.020860e+04 | 9.180938e+04 |  30.77%| unknown
d25.2s|     1 |     0 | 19378 |     - |farkasdi|   0 |9225 |9677 |9743 |   0 | 30 |  63 |   0 | 7.020860e+04 | 8.541502e+04 |  21.66%| unknown
o26.8s|     1 |     0 | 25648 |     - |feaspump|   0 |9225 |9677 |9743 | 109 | 30 |  63 |   0 | 7.020860e+04 | 8.517389e+04 |  21.32%| unknown
 time | node  | left  |LP iter|LP it/n|mem/heur|mdpt |vars |cons |rows |cuts |sepa|confs|strbr|  dualbound   | primalbound  |  gap   | compl. 
L30.0s|     1 |     0 | 34020 |     - |    alns|   0 |9225 |9677 |9743 | 109 | 30 |  63 |   0 | 7.020860e+04 | 8.463389e+04 |  20.55%| unknown
 30.0s|     1 |     0 | 34020 |     - |   151M |   0 |9225 |9674 |9743 | 109 | 30 |  63 |   0 | 7.020860e+04 | 8.463389e+04 |  20.55%| unknown
 41.9s|     1 |     2 | 34020 |     - |   151M |   0 |9225 |9669 |9743 | 109 | 32 |  63 |  39 | 7.105319e+04 | 8.463389e+04 |  19.11%| unknown
r58.0s|    12 |     9 | 40718 |2797.1 |rounding|  10 |9225 |9670 |9745 | 120 |  3 |  66 | 192 | 7.105319e+04 | 8.444732e+04 |  18.85%|   8.90%
*58.1s|    12 |     9 | 40740 |2799.1 |    LP  |  10 |9225 |9670 |9756 | 131 |  9 |  66 | 192 | 7.105319e+04 | 8.435732e+04 |  18.72%|   8.90%
*58.2s|    13 |     8 | 40783 |2569.4 |    LP  |  10 |9225 |9670 |9752 | 132 |  3 |  66 | 192 | 7.105319e+04 | 8.429132e+04 |  18.63%|   8.94%
*58.2s|    14 |     7 | 40816 |2374.3 |strongbr|  10 |9225 |9670 |9745 | 132 |  2 |  66 | 192 | 7.105319e+04 | 8.417632e+04 |  18.47%|   8.97%
*58.3s|    15 |     5 | 40851 |2207.2 |strongbr|  10 |9225 |9670 |9741 | 132 |  2 |  66 | 193 | 7.105319e+04 | 8.414632e+04 |  18.43%|   9.40%
*83.3s|    32 |    12 | 49942 |1290.1 |    LP  |  10 |9225 |9665 |9742 | 140 |  3 |  66 | 339 | 7.232954e+04 | 7.991745e+04 |  10.49%|  16.12%
*83.5s|    35 |    11 | 50021 |1178.6 |    LP  |  10 |9225 |9665 |9742 | 147 |  3 |  66 | 339 | 7.232954e+04 | 7.988545e+04 |  10.45%|  16.45%
*87.5s|    52 |    12 | 55925 | 901.5 |    LP  |  10 |9225 |9668 |9740 | 154 |  4 |  69 | 351 | 7.232954e+04 | 7.986545e+04 |  10.42%|  19.21%
*87.5s|    53 |    11 | 55930 | 884.2 |    LP  |  10 |9225 |9668 |9739 | 154 |  2 |  69 | 351 | 7.232954e+04 | 7.985945e+04 |  10.41%|  19.25%
*87.6s|    57 |     9 | 55964 | 821.7 |    LP  |  10 |9225 |9670 |9741 | 156 |  2 |  71 | 351 | 7.232954e+04 | 7.984145e+04 |  10.39%|  19.41%
*87.6s|    60 |     8 | 55999 | 780.5 |    LP  |  10 |9225 |9670 |9737 | 156 |  2 |  71 | 351 | 7.232954e+04 | 7.982145e+04 |  10.36%|  19.91%
 91.9s|   100 |    34 | 66171 | 567.9 |   170M |  26 |9225 |9689 |9734 | 156 |  2 |  91 | 377 | 7.324369e+04 | 7.982145e+04 |   8.98%|  27.27%
 time | node  | left  |LP iter|LP it/n|mem/heur|mdpt |vars |cons |rows |cuts |sepa|confs|strbr|  dualbound   | primalbound  |  gap   | compl. 
o94.3s|   162 |    86 | 70496 | 376.1 |objpscos|  31 |9225 |9691 |9734 | 156 |  1 |  93 | 383 | 7.389647e+04 | 7.921600e+04 |   7.20%|  33.60%
o94.9s|   193 |   105 | 71023 | 318.1 |rootsold|  34 |9225 |9691 |9735 | 157 |  4 |  93 | 383 | 7.389647e+04 | 7.920900e+04 |   7.19%|  33.60%
 95.0s|   200 |   110 | 71148 | 307.5 |   172M |  34 |9225 |9691 |9736 | 158 |  2 |  93 | 383 | 7.389647e+04 | 7.920900e+04 |   7.19%|  33.65%
*95.5s|   233 |   123 | 71555 | 265.5 |    LP  |  34 |9225 |9691 |9735 | 159 |  1 |  93 | 383 | 7.389647e+04 | 7.916000e+04 |   7.12%|  33.73%
r95.7s|   254 |   132 | 71708 | 244.1 |rounding|  34 |9225 |9691 |9735 | 162 |  0 |  93 | 383 | 7.389647e+04 | 7.915500e+04 |   7.12%|  33.79%
*95.8s|   266 |   128 | 71808 | 233.4 |    LP  |  35 |9225 |9691 |9735 | 162 |  2 |  93 | 383 | 7.389647e+04 | 7.910100e+04 |   7.04%|  33.80%
*96.1s|   296 |   136 | 72003 | 210.3 |    LP  |  35 |9225 |9691 |9735 | 162 |  2 |  93 | 383 | 7.389647e+04 | 7.908800e+04 |   7.03%|  33.87%
 96.2s|   300 |   140 | 72018 | 207.6 |   173M |  35 |9225 |9691 |9735 | 162 |  2 |  93 | 385 | 7.389647e+04 | 7.908800e+04 |   7.03%|  33.88%
* 100s|   348 |    67 | 76251 | 191.1 |    LP  |  38 |9225 |9693 |9736 | 166 |  2 |  95 | 396 | 7.496812e+04 | 7.890000e+04 |   5.24%|  36.50%
* 100s|   357 |    69 | 76282 | 186.3 |    LP  |  38 |9225 |9693 |9736 | 167 |  1 |  95 | 396 | 7.496812e+04 | 7.889600e+04 |   5.24%|  36.55%
* 100s|   359 |    65 | 76289 | 185.3 |    LP  |  38 |9225 |9693 |9736 | 167 |  2 |  95 | 396 | 7.496812e+04 | 7.889200e+04 |   5.23%|  36.55%
  101s|   400 |    80 | 78217 | 171.1 |   174M |  38 |9225 |9693 |9737 | 168 |  1 |  95 | 396 | 7.573355e+04 | 7.889200e+04 |   4.17%|  39.09%
* 101s|   404 |    78 | 78228 | 169.4 |    LP  |  38 |9225 |9693 |9737 | 168 |  2 |  95 | 396 | 7.573355e+04 | 7.889000e+04 |   4.17%|  39.09%
* 101s|   416 |    74 | 78259 | 164.6 |    LP  |  38 |9225 |9693 |9737 | 168 |  1 |  95 | 396 | 7.573355e+04 | 7.887800e+04 |   4.15%|  39.13%
* 101s|   422 |    73 | 78271 | 162.3 |    LP  |  38 |9225 |9693 |9737 | 168 |  2 |  95 | 396 | 7.573355e+04 | 7.887600e+04 |   4.15%|  39.19%
 time | node  | left  |LP iter|LP it/n|mem/heur|mdpt |vars |cons |rows |cuts |sepa|confs|strbr|  dualbound   | primalbound  |  gap   | compl. 
  104s|   500 |    81 | 83765 | 147.9 |   176M |  38 |9225 |9695 |9737 | 168 |  4 |  97 | 405 | 7.590367e+04 | 7.887600e+04 |   3.92%|  48.06%
  111s|   600 |    83 | 92586 | 138.0 |   178M |  38 |9225 |9735 |9737 | 176 |  2 | 140 | 450 | 7.660397e+04 | 7.887600e+04 |   2.97%|  60.33%
* 111s|   620 |    79 | 92637 | 133.6 |    LP  |  38 |9225 |9739 |9737 | 176 |  1 | 144 | 453 | 7.660397e+04 | 7.887200e+04 |   2.96%|  60.33%
r 112s|   642 |    62 | 94135 | 131.3 |rounding|  38 |9225 |9753 |9737 | 176 |  0 | 158 | 467 | 7.660465e+04 | 7.884400e+04 |   2.92%|  64.74%
r 112s|   643 |    38 | 94145 | 131.1 |randroun|  38 |9225 |9753 |9737 | 176 |  0 | 158 | 467 | 7.660465e+04 | 7.881600e+04 |   2.89%|  64.74%
* 112s|   653 |    42 | 94165 | 129.2 |    LP  |  38 |9225 |9753 |9737 | 176 |  1 | 158 | 467 | 7.660465e+04 | 7.881200e+04 |   2.88%|  64.77%
* 113s|   659 |    32 | 94183 | 128.0 |    LP  |  38 |9225 |9753 |9737 | 176 |  1 | 158 | 467 | 7.660465e+04 | 7.880100e+04 |   2.87%|  64.78%
  114s|   700 |    21 | 96592 | 124.0 |   178M |  38 |9225 |9772 |9737 | 176 |  2 | 177 | 488 | 7.708771e+04 | 7.880100e+04 |   2.22%|  83.90%
  115s|   800 |    25 | 97262 | 109.3 |   178M |  38 |9225 |9782 |9736 | 176 |  2 | 187 | 488 | 7.708771e+04 | 7.880100e+04 |   2.22%|  84.30%
  117s|   900 |    33 | 98840 |  98.9 |   179M |  38 |9225 |9786 |9736 | 177 |  2 | 191 | 495 | 7.860536e+04 | 7.880100e+04 |   0.25%|  92.47%
* 117s|   955 |    22 | 99249 |  93.6 |    LP  |  38 |9225 |9783 |9747 | 194 |  1 | 191 | 495 | 7.862036e+04 | 7.879700e+04 |   0.22%|  93.62%
* 118s|  1000 |    19 | 99647 |  89.8 |    LP  |  38 |9225 |9781 |9745 | 206 |  2 | 191 | 495 | 7.862627e+04 | 7.876900e+04 |   0.18%|  94.13%
r 118s|  1003 |     8 | 99785 |  89.7 |rounding|  38 |9225 |9782 |9749 | 217 |  1 | 193 | 495 | 7.862787e+04 | 7.873400e+04 |   0.13%|  94.59%

SCIP Status        : problem is solved [optimal solution found]
Solving Time (sec) : 118.45
Solving Nodes      : 1011
Primal Bound       : +7.87339995707703e+04 (38 solutions)
Dual Bound         : +7.87339995707703e+04
Gap                : 0.00 %
Solve Status: optimal
Solve Time: 118.46 seconds
Objective Value: 78734.00
